clingo version 5.4.0
Reading from merger/Adrian/merge.lp ...
UNKNOWN

INTERRUPTED  : 1
Models       : 0+
Calls        : 1
Time         : 150.183s (Solving: 0.00s 1st Model: 0.00s Unsat: 0.00s)
CPU Time     : 54.322s
